p cnf 250 1404
1 2 3 4 5 0
6 7 8 9 10 0
11 12 13 14 15 0
16 17 18 19 20 0
21 22 23 24 25 0
26 27 28 29 30 0
31 32 33 34 35 0
36 37 38 39 40 0
41 42 43 44 45 0
46 47 48 49 50 0
51 52 53 54 55 0
56 57 58 59 60 0
61 62 63 64 65 0
66 67 68 69 70 0
71 72 73 74 75 0
76 77 78 79 80 0
81 82 83 84 85 0
86 87 88 89 90 0
91 92 93 94 95 0
96 97 98 99 100 0
101 102 103 104 105 0
106 107 108 109 110 0
111 112 113 114 115 0
116 117 118 119 120 0
121 122 123 124 125 0
126 127 128 129 130 0
131 132 133 134 135 0
136 137 138 139 140 0
141 142 143 144 145 0
146 147 148 149 150 0
151 152 153 154 155 0
156 157 158 159 160 0
161 162 163 164 165 0
166 167 168 169 170 0
171 172 173 174 175 0
176 177 178 179 180 0
181 182 183 184 185 0
186 187 188 189 190 0
191 192 193 194 195 0
196 197 198 199 200 0
201 202 203 204 205 0
206 207 208 209 210 0
211 212 213 214 215 0
216 217 218 219 220 0
221 222 223 224 225 0
226 227 228 229 230 0
231 232 233 234 235 0
236 237 238 239 240 0
241 242 243 244 245 0
246 247 248 249 250 0
-1 -2 0
-1 -3 0
-1 -4 0
-1 -5 0
-2 -3 0
-2 -4 0
-2 -5 0
-3 -4 0
-3 -5 0
-4 -5 0
-6 -7 0
-6 -8 0
-6 -9 0
-6 -10 0
-7 -8 0
-7 -9 0
-7 -10 0
-8 -9 0
-8 -10 0
-9 -10 0
-11 -12 0
-11 -13 0
-11 -14 0
-11 -15 0
-12 -13 0
-12 -14 0
-12 -15 0
-13 -14 0
-13 -15 0
-14 -15 0
-16 -17 0
-16 -18 0
-16 -19 0
-16 -20 0
-17 -18 0
-17 -19 0
-17 -20 0
-18 -19 0
-18 -20 0
-19 -20 0
-21 -22 0
-21 -23 0
-21 -24 0
-21 -25 0
-22 -23 0
-22 -24 0
-22 -25 0
-23 -24 0
-23 -25 0
-24 -25 0
-26 -27 0
-26 -28 0
-26 -29 0
-26 -30 0
-27 -28 0
-27 -29 0
-27 -30 0
-28 -29 0
-28 -30 0
-29 -30 0
-31 -32 0
-31 -33 0
-31 -34 0
-31 -35 0
-32 -33 0
-32 -34 0
-32 -35 0
-33 -34 0
-33 -35 0
-34 -35 0
-36 -37 0
-36 -38 0
-36 -39 0
-36 -40 0
-37 -38 0
-37 -39 0
-37 -40 0
-38 -39 0
-38 -40 0
-39 -40 0
-41 -42 0
-41 -43 0
-41 -44 0
-41 -45 0
-42 -43 0
-42 -44 0
-42 -45 0
-43 -44 0
-43 -45 0
-44 -45 0
-46 -47 0
-46 -48 0
-46 -49 0
-46 -50 0
-47 -48 0
-47 -49 0
-47 -50 0
-48 -49 0
-48 -50 0
-49 -50 0
-51 -52 0
-51 -53 0
-51 -54 0
-51 -55 0
-52 -53 0
-52 -54 0
-52 -55 0
-53 -54 0
-53 -55 0
-54 -55 0
-56 -57 0
-56 -58 0
-56 -59 0
-56 -60 0
-57 -58 0
-57 -59 0
-57 -60 0
-58 -59 0
-58 -60 0
-59 -60 0
-61 -62 0
-61 -63 0
-61 -64 0
-61 -65 0
-62 -63 0
-62 -64 0
-62 -65 0
-63 -64 0
-63 -65 0
-64 -65 0
-66 -67 0
-66 -68 0
-66 -69 0
-66 -70 0
-67 -68 0
-67 -69 0
-67 -70 0
-68 -69 0
-68 -70 0
-69 -70 0
-71 -72 0
-71 -73 0
-71 -74 0
-71 -75 0
-72 -73 0
-72 -74 0
-72 -75 0
-73 -74 0
-73 -75 0
-74 -75 0
-76 -77 0
-76 -78 0
-76 -79 0
-76 -80 0
-77 -78 0
-77 -79 0
-77 -80 0
-78 -79 0
-78 -80 0
-79 -80 0
-81 -82 0
-81 -83 0
-81 -84 0
-81 -85 0
-82 -83 0
-82 -84 0
-82 -85 0
-83 -84 0
-83 -85 0
-84 -85 0
-86 -87 0
-86 -88 0
-86 -89 0
-86 -90 0
-87 -88 0
-87 -89 0
-87 -90 0
-88 -89 0
-88 -90 0
-89 -90 0
-91 -92 0
-91 -93 0
-91 -94 0
-91 -95 0
-92 -93 0
-92 -94 0
-92 -95 0
-93 -94 0
-93 -95 0
-94 -95 0
-96 -97 0
-96 -98 0
-96 -99 0
-96 -100 0
-97 -98 0
-97 -99 0
-97 -100 0
-98 -99 0
-98 -100 0
-99 -100 0
-101 -102 0
-101 -103 0
-101 -104 0
-101 -105 0
-102 -103 0
-102 -104 0
-102 -105 0
-103 -104 0
-103 -105 0
-104 -105 0
-106 -107 0
-106 -108 0
-106 -109 0
-106 -110 0
-107 -108 0
-107 -109 0
-107 -110 0
-108 -109 0
-108 -110 0
-109 -110 0
-111 -112 0
-111 -113 0
-111 -114 0
-111 -115 0
-112 -113 0
-112 -114 0
-112 -115 0
-113 -114 0
-113 -115 0
-114 -115 0
-116 -117 0
-116 -118 0
-116 -119 0
-116 -120 0
-117 -118 0
-117 -119 0
-117 -120 0
-118 -119 0
-118 -120 0
-119 -120 0
-121 -122 0
-121 -123 0
-121 -124 0
-121 -125 0
-122 -123 0
-122 -124 0
-122 -125 0
-123 -124 0
-123 -125 0
-124 -125 0
-126 -127 0
-126 -128 0
-126 -129 0
-126 -130 0
-127 -128 0
-127 -129 0
-127 -130 0
-128 -129 0
-128 -130 0
-129 -130 0
-131 -132 0
-131 -133 0
-131 -134 0
-131 -135 0
-132 -133 0
-132 -134 0
-132 -135 0
-133 -134 0
-133 -135 0
-134 -135 0
-136 -137 0
-136 -138 0
-136 -139 0
-136 -140 0
-137 -138 0
-137 -139 0
-137 -140 0
-138 -139 0
-138 -140 0
-139 -140 0
-141 -142 0
-141 -143 0
-141 -144 0
-141 -145 0
-142 -143 0
-142 -144 0
-142 -145 0
-143 -144 0
-143 -145 0
-144 -145 0
-146 -147 0
-146 -148 0
-146 -149 0
-146 -150 0
-147 -148 0
-147 -149 0
-147 -150 0
-148 -149 0
-148 -150 0
-149 -150 0
-151 -152 0
-151 -153 0
-151 -154 0
-151 -155 0
-152 -153 0
-152 -154 0
-152 -155 0
-153 -154 0
-153 -155 0
-154 -155 0
-156 -157 0
-156 -158 0
-156 -159 0
-156 -160 0
-157 -158 0
-157 -159 0
-157 -160 0
-158 -159 0
-158 -160 0
-159 -160 0
-161 -162 0
-161 -163 0
-161 -164 0
-161 -165 0
-162 -163 0
-162 -164 0
-162 -165 0
-163 -164 0
-163 -165 0
-164 -165 0
-166 -167 0
-166 -168 0
-166 -169 0
-166 -170 0
-167 -168 0
-167 -169 0
-167 -170 0
-168 -169 0
-168 -170 0
-169 -170 0
-171 -172 0
-171 -173 0
-171 -174 0
-171 -175 0
-172 -173 0
-172 -174 0
-172 -175 0
-173 -174 0
-173 -175 0
-174 -175 0
-176 -177 0
-176 -178 0
-176 -179 0
-176 -180 0
-177 -178 0
-177 -179 0
-177 -180 0
-178 -179 0
-178 -180 0
-179 -180 0
-181 -182 0
-181 -183 0
-181 -184 0
-181 -185 0
-182 -183 0
-182 -184 0
-182 -185 0
-183 -184 0
-183 -185 0
-184 -185 0
-186 -187 0
-186 -188 0
-186 -189 0
-186 -190 0
-187 -188 0
-187 -189 0
-187 -190 0
-188 -189 0
-188 -190 0
-189 -190 0
-191 -192 0
-191 -193 0
-191 -194 0
-191 -195 0
-192 -193 0
-192 -194 0
-192 -195 0
-193 -194 0
-193 -195 0
-194 -195 0
-196 -197 0
-196 -198 0
-196 -199 0
-196 -200 0
-197 -198 0
-197 -199 0
-197 -200 0
-198 -199 0
-198 -200 0
-199 -200 0
-201 -202 0
-201 -203 0
-201 -204 0
-201 -205 0
-202 -203 0
-202 -204 0
-202 -205 0
-203 -204 0
-203 -205 0
-204 -205 0
-206 -207 0
-206 -208 0
-206 -209 0
-206 -210 0
-207 -208 0
-207 -209 0
-207 -210 0
-208 -209 0
-208 -210 0
-209 -210 0
-211 -212 0
-211 -213 0
-211 -214 0
-211 -215 0
-212 -213 0
-212 -214 0
-212 -215 0
-213 -214 0
-213 -215 0
-214 -215 0
-216 -217 0
-216 -218 0
-216 -219 0
-216 -220 0
-217 -218 0
-217 -219 0
-217 -220 0
-218 -219 0
-218 -220 0
-219 -220 0
-221 -222 0
-221 -223 0
-221 -224 0
-221 -225 0
-222 -223 0
-222 -224 0
-222 -225 0
-223 -224 0
-223 -225 0
-224 -225 0
-226 -227 0
-226 -228 0
-226 -229 0
-226 -230 0
-227 -228 0
-227 -229 0
-227 -230 0
-228 -229 0
-228 -230 0
-229 -230 0
-231 -232 0
-231 -233 0
-231 -234 0
-231 -235 0
-232 -233 0
-232 -234 0
-232 -235 0
-233 -234 0
-233 -235 0
-234 -235 0
-236 -237 0
-236 -238 0
-236 -239 0
-236 -240 0
-237 -238 0
-237 -239 0
-237 -240 0
-238 -239 0
-238 -240 0
-239 -240 0
-241 -242 0
-241 -243 0
-241 -244 0
-241 -245 0
-242 -243 0
-242 -244 0
-242 -245 0
-243 -244 0
-243 -245 0
-244 -245 0
-246 -247 0
-246 -248 0
-246 -249 0
-246 -250 0
-247 -248 0
-247 -249 0
-247 -250 0
-248 -249 0
-248 -250 0
-249 -250 0
-3 -11 0
-1 -13 0
-2 -11 0
-2 -12 0
-4 -12 0
-3 -15 0
-1 -15 0
-4 -125 0
-3 -122 0
-5 -125 0
-1 -124 0
-4 -121 0
-4 -123 0
-5 -124 0
-2 -159 0
-5 -157 0
-3 -156 0
-4 -159 0
-1 -157 0
-2 -160 0
-1 -158 0
-3 -238 0
-2 -237 0
-5 -238 0
-3 -237 0
-5 -240 0
-4 -237 0
-1 -240 0
-7 -21 0
-9 -21 0
-8 -21 0
-9 -24 0
-6 -22 0
-10 -23 0
-10 -22 0
-8 -84 0
-7 -81 0
-10 -81 0
-10 -85 0
-10 -84 0
-6 -81 0
-8 -82 0
-10 -113 0
-6 -114 0
-8 -114 0
-9 -112 0
-6 -115 0
-7 -112 0
-6 -112 0
-8 -132 0
-9 -132 0
-10 -131 0
-9 -135 0
-6 -131 0
-8 -133 0
-10 -133 0
-13 -155 0
-11 -153 0
-11 -154 0
-12 -155 0
-13 -154 0
-15 -154 0
-12 -152 0
-14 -186 0
-14 -188 0
-15 -189 0
-14 -190 0
-15 -187 0
-15 -190 0
-12 -186 0
-15 -202 0
-11 -204 0
-12 -205 0
-12 -201 0
-14 -201 0
-13 -203 0
-12 -204 0
-15 -206 0
-13 -207 0
-11 -208 0
-15 -210 0
-13 -208 0
-13 -206 0
-12 -209 0
-19 -72 0
-16 -74 0
-16 -75 0
-18 -72 0
-19 -75 0
-17 -72 0
-17 -75 0
-17 -87 0
-16 -87 0
-19 -87 0
-17 -89 0
-18 -89 0
-16 -90 0
-19 -86 0
-17 -187 0
-20 -190 0
-18 -188 0
-16 -187 0
-20 -187 0
-16 -189 0
-18 -186 0
-25 -29 0
-22 -27 0
-24 -27 0
-23 -26 0
-22 -28 0
-25 -30 0
-25 -28 0
-24 -112 0
-24 -115 0
-21 -111 0
-25 -113 0
-25 -114 0
-23 -115 0
-21 -114 0
-24 -190 0
-25 -188 0
-22 -189 0
-24 -189 0
-21 -187 0
-23 -189 0
-25 -186 0
-21 -203 0
-25 -203 0
-22 -202 0
-22 -203 0
-25 -205 0
-24 -201 0
-24 -205 0
-27 -101 0
-29 -105 0
-29 -102 0
-28 -101 0
-28 -103 0
-30 -104 0
-29 -103 0
-28 -113 0
-26 -115 0
-29 -113 0
-30 -113 0
-29 -114 0
-29 -112 0
-27 -114 0
-30 -201 0
-26 -205 0
-28 -202 0
-29 -204 0
-30 -203 0
-29 -205 0
-27 -203 0
-26 -206 0
-29 -207 0
-27 -209 0
-26 -207 0
-28 -209 0
-27 -206 0
-30 -207 0
-32 -39 0
-32 -37 0
-32 -36 0
-31 -36 0
-32 -40 0
-34 -36 0
-34 -39 0
-31 -44 0
-35 -42 0
-35 -44 0
-32 -42 0
-35 -41 0
-32 -43 0
-34 -44 0
-35 -56 0
-32 -57 0
-33 -58 0
-35 -58 0
-31 -56 0
-33 -60 0
-33 -59 0
-33 -90 0
-32 -88 0
-35 -88 0
-31 -90 0
-33 -88 0
-31 -86 0
-31 -88 0
-33 -147 0
-31 -150 0
-35 -150 0
-35 -149 0
-33 -148 0
-35 -146 0
-32 -147 0
-32 -185 0
-34 -182 0
-32 -184 0
-34 -185 0
-31 -185 0
-31 -182 0
-35 -182 0
-31 -204 0
-33 -204 0
-34 -205 0
-32 -201 0
-34 -203 0
-33 -203 0
-32 -203 0
-34 -219 0
-31 -217 0
-34 -217 0
-32 -218 0
-33 -217 0
-33 -220 0
-33 -216 0
-36 -122 0
-38 -123 0
-39 -123 0
-40 -124 0
-38 -121 0
-40 -125 0
-39 -122 0
-39 -187 0
-40 -189 0
-36 -187 0
-39 -186 0
-40 -187 0
-39 -189 0
-40 -186 0
-38 -198 0
-36 -200 0
-37 -199 0
-39 -199 0
-40 -199 0
-39 -198 0
-36 -198 0
-44 -54 0
-41 -52 0
-43 -52 0
-43 -55 0
-41 -53 0
-44 -51 0
-44 -55 0
-43 -111 0
-42 -115 0
-42 -114 0
-42 -111 0
-43 -114 0
-43 -112 0
-41 -114 0
-43 -159 0
-41 -160 0
-45 -156 0
-42 -157 0
-42 -159 0
-44 -160 0
-44 -158 0
-42 -225 0
-43 -222 0
-43 -223 0
-44 -223 0
-42 -223 0
-44 -225 0
-45 -223 0
-49 -68 0
-48 -70 0
-50 -69 0
-50 -67 0
-49 -66 0
-49 -70 0
-48 -67 0
-47 -170 0
-50 -170 0
-48 -170 0
-47 -169 0
-47 -168 0
-49 -166 0
-50 -166 0
-49 -182 0
-48 -183 0
-49 -184 0
-50 -185 0
-46 -184 0
-47 -184 0
-47 -182 0
-49 -212 0
-47 -211 0
-46 -212 0
-49 -211 0
-47 -213 0
-49 -215 0
-46 -214 0
-46 -231 0
-50 -231 0
-50 -233 0
-47 -235 0
-47 -233 0
-47 -234 0
-46 -232 0
-47 -248 0
-49 -250 0
-49 -249 0
-48 -250 0
-48 -247 0
-47 -247 0
-50 -246 0
-59 -79 0
-58 -76 0
-60 -77 0
-59 -78 0
-57 -79 0
-56 -79 0
-56 -80 0
-57 -83 0
-60 -84 0
-60 -83 0
-58 -81 0
-56 -85 0
-56 -84 0
-58 -84 0
-60 -104 0
-57 -105 0
-58 -103 0
-56 -101 0
-57 -103 0
-60 -102 0
-56 -105 0
-56 -137 0
-60 -136 0
-57 -138 0
-60 -139 0
-59 -137 0
-59 -140 0
-60 -140 0
-60 -200 0
-56 -199 0
-59 -197 0
-58 -197 0
-56 -197 0
-60 -198 0
-57 -200 0
-59 -206 0
-58 -209 0
-56 -209 0
-57 -209 0
-58 -206 0
-59 -209 0
-57 -210 0
-64 -107 0
-62 -107 0
-61 -109 0
-63 -106 0
-63 -108 0
-63 -107 0
-65 -109 0
-63 -119 0
-62 -118 0
-65 -118 0
-61 -117 0
-62 -119 0
-61 -116 0
-65 -119 0
-61 -121 0
-61 -123 0
-64 -124 0
-64 -125 0
-63 -121 0
-62 -125 0
-61 -124 0
-62 -134 0
-61 -134 0
-64 -135 0
-63 -131 0
-62 -132 0
-61 -131 0
-63 -132 0
-68 -154 0
-69 -152 0
-70 -151 0
-67 -151 0
-68 -152 0
-70 -153 0
-68 -155 0
-70 -169 0
-67 -166 0
-70 -167 0
-67 -169 0
-66 -168 0
-69 -167 0
-67 -168 0
-70 -173 0
-68 -173 0
-66 -173 0
-66 -175 0
-70 -172 0
-66 -172 0
-68 -172 0
-69 -184 0
-68 -182 0
-67 -183 0
-69 -182 0
-66 -183 0
-68 -183 0
-67 -184 0
-70 -234 0
-70 -232 0
-68 -233 0
-67 -234 0
-66 -233 0
-66 -232 0
-66 -235 0
-70 -242 0
-67 -243 0
-66 -241 0
-68 -241 0
-69 -241 0
-69 -242 0
-68 -245 0
-75 -184 0
-75 -181 0
-74 -185 0
-71 -181 0
-71 -184 0
-71 -185 0
-74 -184 0
-76 -83 0
-77 -81 0
-77 -84 0
-79 -81 0
-80 -85 0
-77 -83 0
-79 -84 0
-84 -90 0
-82 -86 0
-81 -87 0
-81 -89 0
-83 -87 0
-84 -89 0
-84 -86 0
-83 -95 0
-85 -94 0
-83 -91 0
-83 -94 0
-84 -93 0
-84 -95 0
-82 -95 0
-83 -130 0
-83 -129 0
-81 -127 0
-84 -129 0
-83 -126 0
-82 -129 0
-84 -130 0
-84 -144 0
-85 -142 0
-82 -145 0
-81 -143 0
-83 -143 0
-83 -144 0
-83 -141 0
-82 -159 0
-85 -156 0
-85 -160 0
-81 -156 0
-84 -157 0
-85 -157 0
-83 -159 0
-81 -181 0
-81 -182 0
-84 -182 0
-85 -182 0
-85 -183 0
-84 -181 0
-85 -184 0
-85 -210 0
-84 -208 0
-82 -207 0
-83 -206 0
-81 -210 0
-85 -209 0
-83 -208 0
-85 -247 0
-81 -246 0
-83 -246 0
-83 -248 0
-81 -247 0
-85 -248 0
-84 -249 0
-86 -125 0
-90 -124 0
-90 -122 0
-86 -122 0
-88 -121 0
-88 -125 0
-87 -123 0
-87 -187 0
-90 -188 0
-86 -190 0
-86 -189 0
-87 -190 0
-87 -186 0
-90 -186 0
-90 -222 0
-89 -224 0
-87 -221 0
-86 -223 0
-89 -223 0
-88 -221 0
-90 -225 0
-87 -230 0
-90 -227 0
-87 -227 0
-89 -228 0
-86 -226 0
-88 -230 0
-86 -230 0
-95 -97 0
-91 -97 0
-92 -96 0
-93 -99 0
-94 -96 0
-91 -96 0
-93 -100 0
-95 -106 0
-92 -110 0
-94 -106 0
-93 -106 0
-95 -110 0
-93 -110 0
-93 -108 0
-91 -124 0
-92 -124 0
-91 -121 0
-95 -125 0
-94 -121 0
-93 -123 0
-93 -125 0
-94 -179 0
-94 -176 0
-91 -179 0
-94 -180 0
-94 -177 0
-92 -179 0
-92 -180 0
-92 -215 0
-93 -215 0
-91 -214 0
-92 -212 0
-94 -214 0
-95 -215 0
-91 -213 0
-100 -119 0
-96 -120 0
-96 -118 0
-98 -120 0
-99 -118 0
-100 -118 0
-99 -116 0
-99 -123 0
-100 -121 0
-100 -124 0
-98 -125 0
-100 -123 0
-98 -121 0
-99 -124 0
-96 -130 0
-100 -127 0
-96 -126 0
-98 -129 0
-100 -129 0
-98 -128 0
-99 -127 0
-100 -160 0
-97 -159 0
-96 -157 0
-96 -159 0
-99 -160 0
-97 -158 0
-96 -158 0
-99 -190 0
-97 -190 0
-100 -186 0
-97 -189 0
-96 -190 0
-100 -190 0
-97 -187 0
-100 -197 0
-100 -200 0
-97 -197 0
-97 -198 0
-98 -198 0
-99 -196 0
-98 -197 0
-100 -244 0
-99 -245 0
-100 -241 0
-100 -245 0
-100 -243 0
-97 -242 0
-98 -243 0
-103 -132 0
-103 -131 0
-101 -132 0
-101 -131 0
-105 -134 0
-103 -133 0
-104 -135 0
-107 -240 0
-108 -237 0
-106 -239 0
-106 -236 0
-109 -240 0
-108 -240 0
-110 -240 0
-112 -185 0
-114 -185 0
-114 -181 0
-115 -182 0
-115 -181 0
-112 -181 0
-111 -181 0
-114 -196 0
-113 -197 0
-113 -198 0
-114 -197 0
-111 -196 0
-114 -200 0
-115 -198 0
-116 -238 0
-118 -238 0
-120 -237 0
-120 -238 0
-119 -237 0
-117 -237 0
-118 -239 0
-122 -135 0
-122 -132 0
-123 -135 0
-125 -131 0
-125 -135 0
-124 -134 0
-123 -134 0
-130 -152 0
-130 -153 0
-127 -154 0
-128 -153 0
-130 -151 0
-126 -155 0
-126 -153 0
-130 -169 0
-127 -170 0
-129 -167 0
-130 -166 0
-130 -168 0
-128 -169 0
-130 -170 0
-128 -200 0
-130 -196 0
-127 -197 0
-130 -200 0
-129 -199 0
-129 -197 0
-126 -199 0
-126 -246 0
-129 -249 0
-127 -250 0
-129 -250 0
-126 -250 0
-129 -248 0
-127 -249 0
-134 -161 0
-131 -161 0
-135 -164 0
-135 -162 0
-133 -165 0
-135 -161 0
-132 -161 0
-133 -200 0
-132 -197 0
-133 -196 0
-131 -196 0
-132 -199 0
-135 -199 0
-132 -198 0
-132 -216 0
-131 -220 0
-135 -216 0
-133 -216 0
-131 -217 0
-135 -217 0
-135 -219 0
-138 -187 0
-137 -190 0
-138 -189 0
-138 -190 0
-140 -188 0
-136 -188 0
-136 -186 0
-147 -152 0
-147 -153 0
-150 -152 0
-147 -151 0
-150 -154 0
-150 -153 0
-148 -152 0
-146 -239 0
-149 -238 0
-147 -239 0
-150 -238 0
-149 -239 0
-148 -238 0
-146 -237 0
-154 -231 0
-154 -233 0
-153 -235 0
-153 -231 0
-151 -232 0
-151 -234 0
-153 -233 0
-158 -165 0
-160 -163 0
-159 -162 0
-158 -162 0
-158 -161 0
-157 -162 0
-158 -163 0
-157 -202 0
-159 -205 0
-159 -201 0
-158 -203 0
-158 -201 0
-156 -205 0
-160 -205 0
-163 -229 0
-165 -228 0
-161 -229 0
-161 -227 0
-162 -230 0
-165 -230 0
-165 -229 0
-166 -187 0
-167 -187 0
-166 -186 0
-168 -189 0
-170 -190 0
-167 -189 0
-167 -190 0
-166 -192 0
-166 -195 0
-168 -195 0
-170 -191 0
-167 -193 0
-169 -193 0
-168 -192 0
-170 -214 0
-169 -213 0
-169 -215 0
-167 -214 0
-168 -215 0
-168 -212 0
-170 -211 0
-173 -179 0
-175 -180 0
-175 -179 0
-172 -178 0
-175 -178 0
-171 -177 0
-175 -177 0
-179 -247 0
-178 -249 0
-179 -250 0
-178 -247 0
-180 -249 0
-177 -249 0
-176 -249 0
-182 -195 0
-183 -193 0
-183 -195 0
-182 -193 0
-184 -194 0
-185 -194 0
-182 -192 0
-182 -214 0
-184 -212 0
-184 -215 0
-185 -214 0
-184 -211 0
-182 -212 0
-182 -213 0
-186 -226 0
-187 -229 0
-186 -227 0
-189 -228 0
-187 -226 0
-186 -230 0
-188 -230 0
-192 -215 0
-195 -211 0
-194 -211 0
-195 -212 0
-193 -215 0
-192 -214 0
-191 -214 0
-191 -219 0
-195 -220 0
-191 -220 0
-194 -216 0
-192 -218 0
-195 -216 0
-191 -217 0
-196 -210 0
-197 -209 0
-199 -210 0
-200 -206 0
-200 -210 0
-199 -206 0
-197 -206 0
-206 -213 0
-209 -211 0
-208 -211 0
-207 -212 0
-210 -211 0
-209 -215 0
-209 -212 0
-214 -232 0
-212 -231 0
-214 -233 0
-211 -234 0
-211 -235 0
-213 -234 0
-211 -232 0
-219 -248 0
-217 -250 0
-218 -246 0
-216 -246 0
-217 -247 0
-219 -249 0
-220 -248 0
-234 -236 0
-231 -239 0
-233 -236 0
-232 -240 0
-234 -237 0
-233 -238 0
-235 -240 0
-245 -246 0
-241 -248 0
-245 -249 0
-242 -250 0
-242 -249 0
-243 -247 0
-245 -250 0
